c  Bad case for Goldberg
c 512 vertices
p max 1539 2049
n 1 s
n 1539 t
a 1 2 512
a 2 514 512
a 2 513 512
a 2 512 512
a 2 511 512
a 2 510 512
a 2 509 512
a 2 508 512
a 2 507 512
a 2 506 512
a 2 505 512
a 2 504 512
a 2 503 512
a 2 502 512
a 2 501 512
a 2 500 512
a 2 499 512
a 2 498 512
a 2 497 512
a 2 496 512
a 2 495 512
a 2 494 512
a 2 493 512
a 2 492 512
a 2 491 512
a 2 490 512
a 2 489 512
a 2 488 512
a 2 487 512
a 2 486 512
a 2 485 512
a 2 484 512
a 2 483 512
a 2 482 512
a 2 481 512
a 2 480 512
a 2 479 512
a 2 478 512
a 2 477 512
a 2 476 512
a 2 475 512
a 2 474 512
a 2 473 512
a 2 472 512
a 2 471 512
a 2 470 512
a 2 469 512
a 2 468 512
a 2 467 512
a 2 466 512
a 2 465 512
a 2 464 512
a 2 463 512
a 2 462 512
a 2 461 512
a 2 460 512
a 2 459 512
a 2 458 512
a 2 457 512
a 2 456 512
a 2 455 512
a 2 454 512
a 2 453 512
a 2 452 512
a 2 451 512
a 2 450 512
a 2 449 512
a 2 448 512
a 2 447 512
a 2 446 512
a 2 445 512
a 2 444 512
a 2 443 512
a 2 442 512
a 2 441 512
a 2 440 512
a 2 439 512
a 2 438 512
a 2 437 512
a 2 436 512
a 2 435 512
a 2 434 512
a 2 433 512
a 2 432 512
a 2 431 512
a 2 430 512
a 2 429 512
a 2 428 512
a 2 427 512
a 2 426 512
a 2 425 512
a 2 424 512
a 2 423 512
a 2 422 512
a 2 421 512
a 2 420 512
a 2 419 512
a 2 418 512
a 2 417 512
a 2 416 512
a 2 415 512
a 2 414 512
a 2 413 512
a 2 412 512
a 2 411 512
a 2 410 512
a 2 409 512
a 2 408 512
a 2 407 512
a 2 406 512
a 2 405 512
a 2 404 512
a 2 403 512
a 2 402 512
a 2 401 512
a 2 400 512
a 2 399 512
a 2 398 512
a 2 397 512
a 2 396 512
a 2 395 512
a 2 394 512
a 2 393 512
a 2 392 512
a 2 391 512
a 2 390 512
a 2 389 512
a 2 388 512
a 2 387 512
a 2 386 512
a 2 385 512
a 2 384 512
a 2 383 512
a 2 382 512
a 2 381 512
a 2 380 512
a 2 379 512
a 2 378 512
a 2 377 512
a 2 376 512
a 2 375 512
a 2 374 512
a 2 373 512
a 2 372 512
a 2 371 512
a 2 370 512
a 2 369 512
a 2 368 512
a 2 367 512
a 2 366 512
a 2 365 512
a 2 364 512
a 2 363 512
a 2 362 512
a 2 361 512
a 2 360 512
a 2 359 512
a 2 358 512
a 2 357 512
a 2 356 512
a 2 355 512
a 2 354 512
a 2 353 512
a 2 352 512
a 2 351 512
a 2 350 512
a 2 349 512
a 2 348 512
a 2 347 512
a 2 346 512
a 2 345 512
a 2 344 512
a 2 343 512
a 2 342 512
a 2 341 512
a 2 340 512
a 2 339 512
a 2 338 512
a 2 337 512
a 2 336 512
a 2 335 512
a 2 334 512
a 2 333 512
a 2 332 512
a 2 331 512
a 2 330 512
a 2 329 512
a 2 328 512
a 2 327 512
a 2 326 512
a 2 325 512
a 2 324 512
a 2 323 512
a 2 322 512
a 2 321 512
a 2 320 512
a 2 319 512
a 2 318 512
a 2 317 512
a 2 316 512
a 2 315 512
a 2 314 512
a 2 313 512
a 2 312 512
a 2 311 512
a 2 310 512
a 2 309 512
a 2 308 512
a 2 307 512
a 2 306 512
a 2 305 512
a 2 304 512
a 2 303 512
a 2 302 512
a 2 301 512
a 2 300 512
a 2 299 512
a 2 298 512
a 2 297 512
a 2 296 512
a 2 295 512
a 2 294 512
a 2 293 512
a 2 292 512
a 2 291 512
a 2 290 512
a 2 289 512
a 2 288 512
a 2 287 512
a 2 286 512
a 2 285 512
a 2 284 512
a 2 283 512
a 2 282 512
a 2 281 512
a 2 280 512
a 2 279 512
a 2 278 512
a 2 277 512
a 2 276 512
a 2 275 512
a 2 274 512
a 2 273 512
a 2 272 512
a 2 271 512
a 2 270 512
a 2 269 512
a 2 268 512
a 2 267 512
a 2 266 512
a 2 265 512
a 2 264 512
a 2 263 512
a 2 262 512
a 2 261 512
a 2 260 512
a 2 259 512
a 2 258 512
a 2 257 512
a 2 256 512
a 2 255 512
a 2 254 512
a 2 253 512
a 2 252 512
a 2 251 512
a 2 250 512
a 2 249 512
a 2 248 512
a 2 247 512
a 2 246 512
a 2 245 512
a 2 244 512
a 2 243 512
a 2 242 512
a 2 241 512
a 2 240 512
a 2 239 512
a 2 238 512
a 2 237 512
a 2 236 512
a 2 235 512
a 2 234 512
a 2 233 512
a 2 232 512
a 2 231 512
a 2 230 512
a 2 229 512
a 2 228 512
a 2 227 512
a 2 226 512
a 2 225 512
a 2 224 512
a 2 223 512
a 2 222 512
a 2 221 512
a 2 220 512
a 2 219 512
a 2 218 512
a 2 217 512
a 2 216 512
a 2 215 512
a 2 214 512
a 2 213 512
a 2 212 512
a 2 211 512
a 2 210 512
a 2 209 512
a 2 208 512
a 2 207 512
a 2 206 512
a 2 205 512
a 2 204 512
a 2 203 512
a 2 202 512
a 2 201 512
a 2 200 512
a 2 199 512
a 2 198 512
a 2 197 512
a 2 196 512
a 2 195 512
a 2 194 512
a 2 193 512
a 2 192 512
a 2 191 512
a 2 190 512
a 2 189 512
a 2 188 512
a 2 187 512
a 2 186 512
a 2 185 512
a 2 184 512
a 2 183 512
a 2 182 512
a 2 181 512
a 2 180 512
a 2 179 512
a 2 178 512
a 2 177 512
a 2 176 512
a 2 175 512
a 2 174 512
a 2 173 512
a 2 172 512
a 2 171 512
a 2 170 512
a 2 169 512
a 2 168 512
a 2 167 512
a 2 166 512
a 2 165 512
a 2 164 512
a 2 163 512
a 2 162 512
a 2 161 512
a 2 160 512
a 2 159 512
a 2 158 512
a 2 157 512
a 2 156 512
a 2 155 512
a 2 154 512
a 2 153 512
a 2 152 512
a 2 151 512
a 2 150 512
a 2 149 512
a 2 148 512
a 2 147 512
a 2 146 512
a 2 145 512
a 2 144 512
a 2 143 512
a 2 142 512
a 2 141 512
a 2 140 512
a 2 139 512
a 2 138 512
a 2 137 512
a 2 136 512
a 2 135 512
a 2 134 512
a 2 133 512
a 2 132 512
a 2 131 512
a 2 130 512
a 2 129 512
a 2 128 512
a 2 127 512
a 2 126 512
a 2 125 512
a 2 124 512
a 2 123 512
a 2 122 512
a 2 121 512
a 2 120 512
a 2 119 512
a 2 118 512
a 2 117 512
a 2 116 512
a 2 115 512
a 2 114 512
a 2 113 512
a 2 112 512
a 2 111 512
a 2 110 512
a 2 109 512
a 2 108 512
a 2 107 512
a 2 106 512
a 2 105 512
a 2 104 512
a 2 103 512
a 2 102 512
a 2 101 512
a 2 100 512
a 2 99 512
a 2 98 512
a 2 97 512
a 2 96 512
a 2 95 512
a 2 94 512
a 2 93 512
a 2 92 512
a 2 91 512
a 2 90 512
a 2 89 512
a 2 88 512
a 2 87 512
a 2 86 512
a 2 85 512
a 2 84 512
a 2 83 512
a 2 82 512
a 2 81 512
a 2 80 512
a 2 79 512
a 2 78 512
a 2 77 512
a 2 76 512
a 2 75 512
a 2 74 512
a 2 73 512
a 2 72 512
a 2 71 512
a 2 70 512
a 2 69 512
a 2 68 512
a 2 67 512
a 2 66 512
a 2 65 512
a 2 64 512
a 2 63 512
a 2 62 512
a 2 61 512
a 2 60 512
a 2 59 512
a 2 58 512
a 2 57 512
a 2 56 512
a 2 55 512
a 2 54 512
a 2 53 512
a 2 52 512
a 2 51 512
a 2 50 512
a 2 49 512
a 2 48 512
a 2 47 512
a 2 46 512
a 2 45 512
a 2 44 512
a 2 43 512
a 2 42 512
a 2 41 512
a 2 40 512
a 2 39 512
a 2 38 512
a 2 37 512
a 2 36 512
a 2 35 512
a 2 34 512
a 2 33 512
a 2 32 512
a 2 31 512
a 2 30 512
a 2 29 512
a 2 28 512
a 2 27 512
a 2 26 512
a 2 25 512
a 2 24 512
a 2 23 512
a 2 22 512
a 2 21 512
a 2 20 512
a 2 19 512
a 2 18 512
a 2 17 512
a 2 16 512
a 2 15 512
a 2 14 512
a 2 13 512
a 2 12 512
a 2 11 512
a 2 10 512
a 2 9 512
a 2 8 512
a 2 7 512
a 2 6 512
a 2 5 512
a 2 4 512
a 2 3 512
a 3 515 1
a 4 516 1
a 5 517 1
a 6 518 1
a 7 519 1
a 8 520 1
a 9 521 1
a 10 522 1
a 11 523 1
a 12 524 1
a 13 525 1
a 14 526 1
a 15 527 1
a 16 528 1
a 17 529 1
a 18 530 1
a 19 531 1
a 20 532 1
a 21 533 1
a 22 534 1
a 23 535 1
a 24 536 1
a 25 537 1
a 26 538 1
a 27 539 1
a 28 540 1
a 29 541 1
a 30 542 1
a 31 543 1
a 32 544 1
a 33 545 1
a 34 546 1
a 35 547 1
a 36 548 1
a 37 549 1
a 38 550 1
a 39 551 1
a 40 552 1
a 41 553 1
a 42 554 1
a 43 555 1
a 44 556 1
a 45 557 1
a 46 558 1
a 47 559 1
a 48 560 1
a 49 561 1
a 50 562 1
a 51 563 1
a 52 564 1
a 53 565 1
a 54 566 1
a 55 567 1
a 56 568 1
a 57 569 1
a 58 570 1
a 59 571 1
a 60 572 1
a 61 573 1
a 62 574 1
a 63 575 1
a 64 576 1
a 65 577 1
a 66 578 1
a 67 579 1
a 68 580 1
a 69 581 1
a 70 582 1
a 71 583 1
a 72 584 1
a 73 585 1
a 74 586 1
a 75 587 1
a 76 588 1
a 77 589 1
a 78 590 1
a 79 591 1
a 80 592 1
a 81 593 1
a 82 594 1
a 83 595 1
a 84 596 1
a 85 597 1
a 86 598 1
a 87 599 1
a 88 600 1
a 89 601 1
a 90 602 1
a 91 603 1
a 92 604 1
a 93 605 1
a 94 606 1
a 95 607 1
a 96 608 1
a 97 609 1
a 98 610 1
a 99 611 1
a 100 612 1
a 101 613 1
a 102 614 1
a 103 615 1
a 104 616 1
a 105 617 1
a 106 618 1
a 107 619 1
a 108 620 1
a 109 621 1
a 110 622 1
a 111 623 1
a 112 624 1
a 113 625 1
a 114 626 1
a 115 627 1
a 116 628 1
a 117 629 1
a 118 630 1
a 119 631 1
a 120 632 1
a 121 633 1
a 122 634 1
a 123 635 1
a 124 636 1
a 125 637 1
a 126 638 1
a 127 639 1
a 128 640 1
a 129 641 1
a 130 642 1
a 131 643 1
a 132 644 1
a 133 645 1
a 134 646 1
a 135 647 1
a 136 648 1
a 137 649 1
a 138 650 1
a 139 651 1
a 140 652 1
a 141 653 1
a 142 654 1
a 143 655 1
a 144 656 1
a 145 657 1
a 146 658 1
a 147 659 1
a 148 660 1
a 149 661 1
a 150 662 1
a 151 663 1
a 152 664 1
a 153 665 1
a 154 666 1
a 155 667 1
a 156 668 1
a 157 669 1
a 158 670 1
a 159 671 1
a 160 672 1
a 161 673 1
a 162 674 1
a 163 675 1
a 164 676 1
a 165 677 1
a 166 678 1
a 167 679 1
a 168 680 1
a 169 681 1
a 170 682 1
a 171 683 1
a 172 684 1
a 173 685 1
a 174 686 1
a 175 687 1
a 176 688 1
a 177 689 1
a 178 690 1
a 179 691 1
a 180 692 1
a 181 693 1
a 182 694 1
a 183 695 1
a 184 696 1
a 185 697 1
a 186 698 1
a 187 699 1
a 188 700 1
a 189 701 1
a 190 702 1
a 191 703 1
a 192 704 1
a 193 705 1
a 194 706 1
a 195 707 1
a 196 708 1
a 197 709 1
a 198 710 1
a 199 711 1
a 200 712 1
a 201 713 1
a 202 714 1
a 203 715 1
a 204 716 1
a 205 717 1
a 206 718 1
a 207 719 1
a 208 720 1
a 209 721 1
a 210 722 1
a 211 723 1
a 212 724 1
a 213 725 1
a 214 726 1
a 215 727 1
a 216 728 1
a 217 729 1
a 218 730 1
a 219 731 1
a 220 732 1
a 221 733 1
a 222 734 1
a 223 735 1
a 224 736 1
a 225 737 1
a 226 738 1
a 227 739 1
a 228 740 1
a 229 741 1
a 230 742 1
a 231 743 1
a 232 744 1
a 233 745 1
a 234 746 1
a 235 747 1
a 236 748 1
a 237 749 1
a 238 750 1
a 239 751 1
a 240 752 1
a 241 753 1
a 242 754 1
a 243 755 1
a 244 756 1
a 245 757 1
a 246 758 1
a 247 759 1
a 248 760 1
a 249 761 1
a 250 762 1
a 251 763 1
a 252 764 1
a 253 765 1
a 254 766 1
a 255 767 1
a 256 768 1
a 257 769 1
a 258 770 1
a 259 771 1
a 260 772 1
a 261 773 1
a 262 774 1
a 263 775 1
a 264 776 1
a 265 777 1
a 266 778 1
a 267 779 1
a 268 780 1
a 269 781 1
a 270 782 1
a 271 783 1
a 272 784 1
a 273 785 1
a 274 786 1
a 275 787 1
a 276 788 1
a 277 789 1
a 278 790 1
a 279 791 1
a 280 792 1
a 281 793 1
a 282 794 1
a 283 795 1
a 284 796 1
a 285 797 1
a 286 798 1
a 287 799 1
a 288 800 1
a 289 801 1
a 290 802 1
a 291 803 1
a 292 804 1
a 293 805 1
a 294 806 1
a 295 807 1
a 296 808 1
a 297 809 1
a 298 810 1
a 299 811 1
a 300 812 1
a 301 813 1
a 302 814 1
a 303 815 1
a 304 816 1
a 305 817 1
a 306 818 1
a 307 819 1
a 308 820 1
a 309 821 1
a 310 822 1
a 311 823 1
a 312 824 1
a 313 825 1
a 314 826 1
a 315 827 1
a 316 828 1
a 317 829 1
a 318 830 1
a 319 831 1
a 320 832 1
a 321 833 1
a 322 834 1
a 323 835 1
a 324 836 1
a 325 837 1
a 326 838 1
a 327 839 1
a 328 840 1
a 329 841 1
a 330 842 1
a 331 843 1
a 332 844 1
a 333 845 1
a 334 846 1
a 335 847 1
a 336 848 1
a 337 849 1
a 338 850 1
a 339 851 1
a 340 852 1
a 341 853 1
a 342 854 1
a 343 855 1
a 344 856 1
a 345 857 1
a 346 858 1
a 347 859 1
a 348 860 1
a 349 861 1
a 350 862 1
a 351 863 1
a 352 864 1
a 353 865 1
a 354 866 1
a 355 867 1
a 356 868 1
a 357 869 1
a 358 870 1
a 359 871 1
a 360 872 1
a 361 873 1
a 362 874 1
a 363 875 1
a 364 876 1
a 365 877 1
a 366 878 1
a 367 879 1
a 368 880 1
a 369 881 1
a 370 882 1
a 371 883 1
a 372 884 1
a 373 885 1
a 374 886 1
a 375 887 1
a 376 888 1
a 377 889 1
a 378 890 1
a 379 891 1
a 380 892 1
a 381 893 1
a 382 894 1
a 383 895 1
a 384 896 1
a 385 897 1
a 386 898 1
a 387 899 1
a 388 900 1
a 389 901 1
a 390 902 1
a 391 903 1
a 392 904 1
a 393 905 1
a 394 906 1
a 395 907 1
a 396 908 1
a 397 909 1
a 398 910 1
a 399 911 1
a 400 912 1
a 401 913 1
a 402 914 1
a 403 915 1
a 404 916 1
a 405 917 1
a 406 918 1
a 407 919 1
a 408 920 1
a 409 921 1
a 410 922 1
a 411 923 1
a 412 924 1
a 413 925 1
a 414 926 1
a 415 927 1
a 416 928 1
a 417 929 1
a 418 930 1
a 419 931 1
a 420 932 1
a 421 933 1
a 422 934 1
a 423 935 1
a 424 936 1
a 425 937 1
a 426 938 1
a 427 939 1
a 428 940 1
a 429 941 1
a 430 942 1
a 431 943 1
a 432 944 1
a 433 945 1
a 434 946 1
a 435 947 1
a 436 948 1
a 437 949 1
a 438 950 1
a 439 951 1
a 440 952 1
a 441 953 1
a 442 954 1
a 443 955 1
a 444 956 1
a 445 957 1
a 446 958 1
a 447 959 1
a 448 960 1
a 449 961 1
a 450 962 1
a 451 963 1
a 452 964 1
a 453 965 1
a 454 966 1
a 455 967 1
a 456 968 1
a 457 969 1
a 458 970 1
a 459 971 1
a 460 972 1
a 461 973 1
a 462 974 1
a 463 975 1
a 464 976 1
a 465 977 1
a 466 978 1
a 467 979 1
a 468 980 1
a 469 981 1
a 470 982 1
a 471 983 1
a 472 984 1
a 473 985 1
a 474 986 1
a 475 987 1
a 476 988 1
a 477 989 1
a 478 990 1
a 479 991 1
a 480 992 1
a 481 993 1
a 482 994 1
a 483 995 1
a 484 996 1
a 485 997 1
a 486 998 1
a 487 999 1
a 488 1000 1
a 489 1001 1
a 490 1002 1
a 491 1003 1
a 492 1004 1
a 493 1005 1
a 494 1006 1
a 495 1007 1
a 496 1008 1
a 497 1009 1
a 498 1010 1
a 499 1011 1
a 500 1012 1
a 501 1013 1
a 502 1014 1
a 503 1015 1
a 504 1016 1
a 505 1017 1
a 506 1018 1
a 507 1019 1
a 508 1020 1
a 509 1021 1
a 510 1022 1
a 511 1023 1
a 512 1024 1
a 513 1025 1
a 514 1026 1
a 515 1027 512
a 516 1027 512
a 517 1027 512
a 518 1027 512
a 519 1027 512
a 520 1027 512
a 521 1027 512
a 522 1027 512
a 523 1027 512
a 524 1027 512
a 525 1027 512
a 526 1027 512
a 527 1027 512
a 528 1027 512
a 529 1027 512
a 530 1027 512
a 531 1027 512
a 532 1027 512
a 533 1027 512
a 534 1027 512
a 535 1027 512
a 536 1027 512
a 537 1027 512
a 538 1027 512
a 539 1027 512
a 540 1027 512
a 541 1027 512
a 542 1027 512
a 543 1027 512
a 544 1027 512
a 545 1027 512
a 546 1027 512
a 547 1027 512
a 548 1027 512
a 549 1027 512
a 550 1027 512
a 551 1027 512
a 552 1027 512
a 553 1027 512
a 554 1027 512
a 555 1027 512
a 556 1027 512
a 557 1027 512
a 558 1027 512
a 559 1027 512
a 560 1027 512
a 561 1027 512
a 562 1027 512
a 563 1027 512
a 564 1027 512
a 565 1027 512
a 566 1027 512
a 567 1027 512
a 568 1027 512
a 569 1027 512
a 570 1027 512
a 571 1027 512
a 572 1027 512
a 573 1027 512
a 574 1027 512
a 575 1027 512
a 576 1027 512
a 577 1027 512
a 578 1027 512
a 579 1027 512
a 580 1027 512
a 581 1027 512
a 582 1027 512
a 583 1027 512
a 584 1027 512
a 585 1027 512
a 586 1027 512
a 587 1027 512
a 588 1027 512
a 589 1027 512
a 590 1027 512
a 591 1027 512
a 592 1027 512
a 593 1027 512
a 594 1027 512
a 595 1027 512
a 596 1027 512
a 597 1027 512
a 598 1027 512
a 599 1027 512
a 600 1027 512
a 601 1027 512
a 602 1027 512
a 603 1027 512
a 604 1027 512
a 605 1027 512
a 606 1027 512
a 607 1027 512
a 608 1027 512
a 609 1027 512
a 610 1027 512
a 611 1027 512
a 612 1027 512
a 613 1027 512
a 614 1027 512
a 615 1027 512
a 616 1027 512
a 617 1027 512
a 618 1027 512
a 619 1027 512
a 620 1027 512
a 621 1027 512
a 622 1027 512
a 623 1027 512
a 624 1027 512
a 625 1027 512
a 626 1027 512
a 627 1027 512
a 628 1027 512
a 629 1027 512
a 630 1027 512
a 631 1027 512
a 632 1027 512
a 633 1027 512
a 634 1027 512
a 635 1027 512
a 636 1027 512
a 637 1027 512
a 638 1027 512
a 639 1027 512
a 640 1027 512
a 641 1027 512
a 642 1027 512
a 643 1027 512
a 644 1027 512
a 645 1027 512
a 646 1027 512
a 647 1027 512
a 648 1027 512
a 649 1027 512
a 650 1027 512
a 651 1027 512
a 652 1027 512
a 653 1027 512
a 654 1027 512
a 655 1027 512
a 656 1027 512
a 657 1027 512
a 658 1027 512
a 659 1027 512
a 660 1027 512
a 661 1027 512
a 662 1027 512
a 663 1027 512
a 664 1027 512
a 665 1027 512
a 666 1027 512
a 667 1027 512
a 668 1027 512
a 669 1027 512
a 670 1027 512
a 671 1027 512
a 672 1027 512
a 673 1027 512
a 674 1027 512
a 675 1027 512
a 676 1027 512
a 677 1027 512
a 678 1027 512
a 679 1027 512
a 680 1027 512
a 681 1027 512
a 682 1027 512
a 683 1027 512
a 684 1027 512
a 685 1027 512
a 686 1027 512
a 687 1027 512
a 688 1027 512
a 689 1027 512
a 690 1027 512
a 691 1027 512
a 692 1027 512
a 693 1027 512
a 694 1027 512
a 695 1027 512
a 696 1027 512
a 697 1027 512
a 698 1027 512
a 699 1027 512
a 700 1027 512
a 701 1027 512
a 702 1027 512
a 703 1027 512
a 704 1027 512
a 705 1027 512
a 706 1027 512
a 707 1027 512
a 708 1027 512
a 709 1027 512
a 710 1027 512
a 711 1027 512
a 712 1027 512
a 713 1027 512
a 714 1027 512
a 715 1027 512
a 716 1027 512
a 717 1027 512
a 718 1027 512
a 719 1027 512
a 720 1027 512
a 721 1027 512
a 722 1027 512
a 723 1027 512
a 724 1027 512
a 725 1027 512
a 726 1027 512
a 727 1027 512
a 728 1027 512
a 729 1027 512
a 730 1027 512
a 731 1027 512
a 732 1027 512
a 733 1027 512
a 734 1027 512
a 735 1027 512
a 736 1027 512
a 737 1027 512
a 738 1027 512
a 739 1027 512
a 740 1027 512
a 741 1027 512
a 742 1027 512
a 743 1027 512
a 744 1027 512
a 745 1027 512
a 746 1027 512
a 747 1027 512
a 748 1027 512
a 749 1027 512
a 750 1027 512
a 751 1027 512
a 752 1027 512
a 753 1027 512
a 754 1027 512
a 755 1027 512
a 756 1027 512
a 757 1027 512
a 758 1027 512
a 759 1027 512
a 760 1027 512
a 761 1027 512
a 762 1027 512
a 763 1027 512
a 764 1027 512
a 765 1027 512
a 766 1027 512
a 767 1027 512
a 768 1027 512
a 769 1027 512
a 770 1027 512
a 771 1027 512
a 772 1027 512
a 773 1027 512
a 774 1027 512
a 775 1027 512
a 776 1027 512
a 777 1027 512
a 778 1027 512
a 779 1027 512
a 780 1027 512
a 781 1027 512
a 782 1027 512
a 783 1027 512
a 784 1027 512
a 785 1027 512
a 786 1027 512
a 787 1027 512
a 788 1027 512
a 789 1027 512
a 790 1027 512
a 791 1027 512
a 792 1027 512
a 793 1027 512
a 794 1027 512
a 795 1027 512
a 796 1027 512
a 797 1027 512
a 798 1027 512
a 799 1027 512
a 800 1027 512
a 801 1027 512
a 802 1027 512
a 803 1027 512
a 804 1027 512
a 805 1027 512
a 806 1027 512
a 807 1027 512
a 808 1027 512
a 809 1027 512
a 810 1027 512
a 811 1027 512
a 812 1027 512
a 813 1027 512
a 814 1027 512
a 815 1027 512
a 816 1027 512
a 817 1027 512
a 818 1027 512
a 819 1027 512
a 820 1027 512
a 821 1027 512
a 822 1027 512
a 823 1027 512
a 824 1027 512
a 825 1027 512
a 826 1027 512
a 827 1027 512
a 828 1027 512
a 829 1027 512
a 830 1027 512
a 831 1027 512
a 832 1027 512
a 833 1027 512
a 834 1027 512
a 835 1027 512
a 836 1027 512
a 837 1027 512
a 838 1027 512
a 839 1027 512
a 840 1027 512
a 841 1027 512
a 842 1027 512
a 843 1027 512
a 844 1027 512
a 845 1027 512
a 846 1027 512
a 847 1027 512
a 848 1027 512
a 849 1027 512
a 850 1027 512
a 851 1027 512
a 852 1027 512
a 853 1027 512
a 854 1027 512
a 855 1027 512
a 856 1027 512
a 857 1027 512
a 858 1027 512
a 859 1027 512
a 860 1027 512
a 861 1027 512
a 862 1027 512
a 863 1027 512
a 864 1027 512
a 865 1027 512
a 866 1027 512
a 867 1027 512
a 868 1027 512
a 869 1027 512
a 870 1027 512
a 871 1027 512
a 872 1027 512
a 873 1027 512
a 874 1027 512
a 875 1027 512
a 876 1027 512
a 877 1027 512
a 878 1027 512
a 879 1027 512
a 880 1027 512
a 881 1027 512
a 882 1027 512
a 883 1027 512
a 884 1027 512
a 885 1027 512
a 886 1027 512
a 887 1027 512
a 888 1027 512
a 889 1027 512
a 890 1027 512
a 891 1027 512
a 892 1027 512
a 893 1027 512
a 894 1027 512
a 895 1027 512
a 896 1027 512
a 897 1027 512
a 898 1027 512
a 899 1027 512
a 900 1027 512
a 901 1027 512
a 902 1027 512
a 903 1027 512
a 904 1027 512
a 905 1027 512
a 906 1027 512
a 907 1027 512
a 908 1027 512
a 909 1027 512
a 910 1027 512
a 911 1027 512
a 912 1027 512
a 913 1027 512
a 914 1027 512
a 915 1027 512
a 916 1027 512
a 917 1027 512
a 918 1027 512
a 919 1027 512
a 920 1027 512
a 921 1027 512
a 922 1027 512
a 923 1027 512
a 924 1027 512
a 925 1027 512
a 926 1027 512
a 927 1027 512
a 928 1027 512
a 929 1027 512
a 930 1027 512
a 931 1027 512
a 932 1027 512
a 933 1027 512
a 934 1027 512
a 935 1027 512
a 936 1027 512
a 937 1027 512
a 938 1027 512
a 939 1027 512
a 940 1027 512
a 941 1027 512
a 942 1027 512
a 943 1027 512
a 944 1027 512
a 945 1027 512
a 946 1027 512
a 947 1027 512
a 948 1027 512
a 949 1027 512
a 950 1027 512
a 951 1027 512
a 952 1027 512
a 953 1027 512
a 954 1027 512
a 955 1027 512
a 956 1027 512
a 957 1027 512
a 958 1027 512
a 959 1027 512
a 960 1027 512
a 961 1027 512
a 962 1027 512
a 963 1027 512
a 964 1027 512
a 965 1027 512
a 966 1027 512
a 967 1027 512
a 968 1027 512
a 969 1027 512
a 970 1027 512
a 971 1027 512
a 972 1027 512
a 973 1027 512
a 974 1027 512
a 975 1027 512
a 976 1027 512
a 977 1027 512
a 978 1027 512
a 979 1027 512
a 980 1027 512
a 981 1027 512
a 982 1027 512
a 983 1027 512
a 984 1027 512
a 985 1027 512
a 986 1027 512
a 987 1027 512
a 988 1027 512
a 989 1027 512
a 990 1027 512
a 991 1027 512
a 992 1027 512
a 993 1027 512
a 994 1027 512
a 995 1027 512
a 996 1027 512
a 997 1027 512
a 998 1027 512
a 999 1027 512
a 1000 1027 512
a 1001 1027 512
a 1002 1027 512
a 1003 1027 512
a 1004 1027 512
a 1005 1027 512
a 1006 1027 512
a 1007 1027 512
a 1008 1027 512
a 1009 1027 512
a 1010 1027 512
a 1011 1027 512
a 1012 1027 512
a 1013 1027 512
a 1014 1027 512
a 1015 1027 512
a 1016 1027 512
a 1017 1027 512
a 1018 1027 512
a 1019 1027 512
a 1020 1027 512
a 1021 1027 512
a 1022 1027 512
a 1023 1027 512
a 1024 1027 512
a 1025 1027 512
a 1026 1027 512
a 1027 1028 512
a 1028 1029 512
a 1029 1030 512
a 1030 1031 512
a 1031 1032 512
a 1032 1033 512
a 1033 1034 512
a 1034 1035 512
a 1035 1036 512
a 1036 1037 512
a 1037 1038 512
a 1038 1039 512
a 1039 1040 512
a 1040 1041 512
a 1041 1042 512
a 1042 1043 512
a 1043 1044 512
a 1044 1045 512
a 1045 1046 512
a 1046 1047 512
a 1047 1048 512
a 1048 1049 512
a 1049 1050 512
a 1050 1051 512
a 1051 1052 512
a 1052 1053 512
a 1053 1054 512
a 1054 1055 512
a 1055 1056 512
a 1056 1057 512
a 1057 1058 512
a 1058 1059 512
a 1059 1060 512
a 1060 1061 512
a 1061 1062 512
a 1062 1063 512
a 1063 1064 512
a 1064 1065 512
a 1065 1066 512
a 1066 1067 512
a 1067 1068 512
a 1068 1069 512
a 1069 1070 512
a 1070 1071 512
a 1071 1072 512
a 1072 1073 512
a 1073 1074 512
a 1074 1075 512
a 1075 1076 512
a 1076 1077 512
a 1077 1078 512
a 1078 1079 512
a 1079 1080 512
a 1080 1081 512
a 1081 1082 512
a 1082 1083 512
a 1083 1084 512
a 1084 1085 512
a 1085 1086 512
a 1086 1087 512
a 1087 1088 512
a 1088 1089 512
a 1089 1090 512
a 1090 1091 512
a 1091 1092 512
a 1092 1093 512
a 1093 1094 512
a 1094 1095 512
a 1095 1096 512
a 1096 1097 512
a 1097 1098 512
a 1098 1099 512
a 1099 1100 512
a 1100 1101 512
a 1101 1102 512
a 1102 1103 512
a 1103 1104 512
a 1104 1105 512
a 1105 1106 512
a 1106 1107 512
a 1107 1108 512
a 1108 1109 512
a 1109 1110 512
a 1110 1111 512
a 1111 1112 512
a 1112 1113 512
a 1113 1114 512
a 1114 1115 512
a 1115 1116 512
a 1116 1117 512
a 1117 1118 512
a 1118 1119 512
a 1119 1120 512
a 1120 1121 512
a 1121 1122 512
a 1122 1123 512
a 1123 1124 512
a 1124 1125 512
a 1125 1126 512
a 1126 1127 512
a 1127 1128 512
a 1128 1129 512
a 1129 1130 512
a 1130 1131 512
a 1131 1132 512
a 1132 1133 512
a 1133 1134 512
a 1134 1135 512
a 1135 1136 512
a 1136 1137 512
a 1137 1138 512
a 1138 1139 512
a 1139 1140 512
a 1140 1141 512
a 1141 1142 512
a 1142 1143 512
a 1143 1144 512
a 1144 1145 512
a 1145 1146 512
a 1146 1147 512
a 1147 1148 512
a 1148 1149 512
a 1149 1150 512
a 1150 1151 512
a 1151 1152 512
a 1152 1153 512
a 1153 1154 512
a 1154 1155 512
a 1155 1156 512
a 1156 1157 512
a 1157 1158 512
a 1158 1159 512
a 1159 1160 512
a 1160 1161 512
a 1161 1162 512
a 1162 1163 512
a 1163 1164 512
a 1164 1165 512
a 1165 1166 512
a 1166 1167 512
a 1167 1168 512
a 1168 1169 512
a 1169 1170 512
a 1170 1171 512
a 1171 1172 512
a 1172 1173 512
a 1173 1174 512
a 1174 1175 512
a 1175 1176 512
a 1176 1177 512
a 1177 1178 512
a 1178 1179 512
a 1179 1180 512
a 1180 1181 512
a 1181 1182 512
a 1182 1183 512
a 1183 1184 512
a 1184 1185 512
a 1185 1186 512
a 1186 1187 512
a 1187 1188 512
a 1188 1189 512
a 1189 1190 512
a 1190 1191 512
a 1191 1192 512
a 1192 1193 512
a 1193 1194 512
a 1194 1195 512
a 1195 1196 512
a 1196 1197 512
a 1197 1198 512
a 1198 1199 512
a 1199 1200 512
a 1200 1201 512
a 1201 1202 512
a 1202 1203 512
a 1203 1204 512
a 1204 1205 512
a 1205 1206 512
a 1206 1207 512
a 1207 1208 512
a 1208 1209 512
a 1209 1210 512
a 1210 1211 512
a 1211 1212 512
a 1212 1213 512
a 1213 1214 512
a 1214 1215 512
a 1215 1216 512
a 1216 1217 512
a 1217 1218 512
a 1218 1219 512
a 1219 1220 512
a 1220 1221 512
a 1221 1222 512
a 1222 1223 512
a 1223 1224 512
a 1224 1225 512
a 1225 1226 512
a 1226 1227 512
a 1227 1228 512
a 1228 1229 512
a 1229 1230 512
a 1230 1231 512
a 1231 1232 512
a 1232 1233 512
a 1233 1234 512
a 1234 1235 512
a 1235 1236 512
a 1236 1237 512
a 1237 1238 512
a 1238 1239 512
a 1239 1240 512
a 1240 1241 512
a 1241 1242 512
a 1242 1243 512
a 1243 1244 512
a 1244 1245 512
a 1245 1246 512
a 1246 1247 512
a 1247 1248 512
a 1248 1249 512
a 1249 1250 512
a 1250 1251 512
a 1251 1252 512
a 1252 1253 512
a 1253 1254 512
a 1254 1255 512
a 1255 1256 512
a 1256 1257 512
a 1257 1258 512
a 1258 1259 512
a 1259 1260 512
a 1260 1261 512
a 1261 1262 512
a 1262 1263 512
a 1263 1264 512
a 1264 1265 512
a 1265 1266 512
a 1266 1267 512
a 1267 1268 512
a 1268 1269 512
a 1269 1270 512
a 1270 1271 512
a 1271 1272 512
a 1272 1273 512
a 1273 1274 512
a 1274 1275 512
a 1275 1276 512
a 1276 1277 512
a 1277 1278 512
a 1278 1279 512
a 1279 1280 512
a 1280 1281 512
a 1281 1282 512
a 1282 1283 512
a 1283 1284 512
a 1284 1285 512
a 1285 1286 512
a 1286 1287 512
a 1287 1288 512
a 1288 1289 512
a 1289 1290 512
a 1290 1291 512
a 1291 1292 512
a 1292 1293 512
a 1293 1294 512
a 1294 1295 512
a 1295 1296 512
a 1296 1297 512
a 1297 1298 512
a 1298 1299 512
a 1299 1300 512
a 1300 1301 512
a 1301 1302 512
a 1302 1303 512
a 1303 1304 512
a 1304 1305 512
a 1305 1306 512
a 1306 1307 512
a 1307 1308 512
a 1308 1309 512
a 1309 1310 512
a 1310 1311 512
a 1311 1312 512
a 1312 1313 512
a 1313 1314 512
a 1314 1315 512
a 1315 1316 512
a 1316 1317 512
a 1317 1318 512
a 1318 1319 512
a 1319 1320 512
a 1320 1321 512
a 1321 1322 512
a 1322 1323 512
a 1323 1324 512
a 1324 1325 512
a 1325 1326 512
a 1326 1327 512
a 1327 1328 512
a 1328 1329 512
a 1329 1330 512
a 1330 1331 512
a 1331 1332 512
a 1332 1333 512
a 1333 1334 512
a 1334 1335 512
a 1335 1336 512
a 1336 1337 512
a 1337 1338 512
a 1338 1339 512
a 1339 1340 512
a 1340 1341 512
a 1341 1342 512
a 1342 1343 512
a 1343 1344 512
a 1344 1345 512
a 1345 1346 512
a 1346 1347 512
a 1347 1348 512
a 1348 1349 512
a 1349 1350 512
a 1350 1351 512
a 1351 1352 512
a 1352 1353 512
a 1353 1354 512
a 1354 1355 512
a 1355 1356 512
a 1356 1357 512
a 1357 1358 512
a 1358 1359 512
a 1359 1360 512
a 1360 1361 512
a 1361 1362 512
a 1362 1363 512
a 1363 1364 512
a 1364 1365 512
a 1365 1366 512
a 1366 1367 512
a 1367 1368 512
a 1368 1369 512
a 1369 1370 512
a 1370 1371 512
a 1371 1372 512
a 1372 1373 512
a 1373 1374 512
a 1374 1375 512
a 1375 1376 512
a 1376 1377 512
a 1377 1378 512
a 1378 1379 512
a 1379 1380 512
a 1380 1381 512
a 1381 1382 512
a 1382 1383 512
a 1383 1384 512
a 1384 1385 512
a 1385 1386 512
a 1386 1387 512
a 1387 1388 512
a 1388 1389 512
a 1389 1390 512
a 1390 1391 512
a 1391 1392 512
a 1392 1393 512
a 1393 1394 512
a 1394 1395 512
a 1395 1396 512
a 1396 1397 512
a 1397 1398 512
a 1398 1399 512
a 1399 1400 512
a 1400 1401 512
a 1401 1402 512
a 1402 1403 512
a 1403 1404 512
a 1404 1405 512
a 1405 1406 512
a 1406 1407 512
a 1407 1408 512
a 1408 1409 512
a 1409 1410 512
a 1410 1411 512
a 1411 1412 512
a 1412 1413 512
a 1413 1414 512
a 1414 1415 512
a 1415 1416 512
a 1416 1417 512
a 1417 1418 512
a 1418 1419 512
a 1419 1420 512
a 1420 1421 512
a 1421 1422 512
a 1422 1423 512
a 1423 1424 512
a 1424 1425 512
a 1425 1426 512
a 1426 1427 512
a 1427 1428 512
a 1428 1429 512
a 1429 1430 512
a 1430 1431 512
a 1431 1432 512
a 1432 1433 512
a 1433 1434 512
a 1434 1435 512
a 1435 1436 512
a 1436 1437 512
a 1437 1438 512
a 1438 1439 512
a 1439 1440 512
a 1440 1441 512
a 1441 1442 512
a 1442 1443 512
a 1443 1444 512
a 1444 1445 512
a 1445 1446 512
a 1446 1447 512
a 1447 1448 512
a 1448 1449 512
a 1449 1450 512
a 1450 1451 512
a 1451 1452 512
a 1452 1453 512
a 1453 1454 512
a 1454 1455 512
a 1455 1456 512
a 1456 1457 512
a 1457 1458 512
a 1458 1459 512
a 1459 1460 512
a 1460 1461 512
a 1461 1462 512
a 1462 1463 512
a 1463 1464 512
a 1464 1465 512
a 1465 1466 512
a 1466 1467 512
a 1467 1468 512
a 1468 1469 512
a 1469 1470 512
a 1470 1471 512
a 1471 1472 512
a 1472 1473 512
a 1473 1474 512
a 1474 1475 512
a 1475 1476 512
a 1476 1477 512
a 1477 1478 512
a 1478 1479 512
a 1479 1480 512
a 1480 1481 512
a 1481 1482 512
a 1482 1483 512
a 1483 1484 512
a 1484 1485 512
a 1485 1486 512
a 1486 1487 512
a 1487 1488 512
a 1488 1489 512
a 1489 1490 512
a 1490 1491 512
a 1491 1492 512
a 1492 1493 512
a 1493 1494 512
a 1494 1495 512
a 1495 1496 512
a 1496 1497 512
a 1497 1498 512
a 1498 1499 512
a 1499 1500 512
a 1500 1501 512
a 1501 1502 512
a 1502 1503 512
a 1503 1504 512
a 1504 1505 512
a 1505 1506 512
a 1506 1507 512
a 1507 1508 512
a 1508 1509 512
a 1509 1510 512
a 1510 1511 512
a 1511 1512 512
a 1512 1513 512
a 1513 1514 512
a 1514 1515 512
a 1515 1516 512
a 1516 1517 512
a 1517 1518 512
a 1518 1519 512
a 1519 1520 512
a 1520 1521 512
a 1521 1522 512
a 1522 1523 512
a 1523 1524 512
a 1524 1525 512
a 1525 1526 512
a 1526 1527 512
a 1527 1528 512
a 1528 1529 512
a 1529 1530 512
a 1530 1531 512
a 1531 1532 512
a 1532 1533 512
a 1533 1534 512
a 1534 1535 512
a 1535 1536 512
a 1536 1537 512
a 1537 1538 512
a 1538 1539 512
